NAME lp_typeD_947
OBJSENSE MAX
ROWS
 N  OBJ
 L  c0      
 L  c1      
 G  c2      
 G  c3      
 L  c_key_upper
 G  c_key_lower
 G  _chain_constr_1
 G  _chain_constr_2
 G  _chain_constr_3
 G  _chain_constr_4
 G  _chain_constr_5
 G  _chain_cycle
COLUMNS
    x0        OBJ       5.8275132401253626e-01
    x0        c0        6.3140360156022979e-01
    x0        c1        1.4427938223636694e+00
    x0        c2        9.4121956260768547e-01
    x0        c3        8.8662998371346546e-01
    x0        c_key_upper  1.1566453362730456e+00
    x0        c_key_lower  1.1566453362730456e+00
    x1        OBJ       1.2386450027898563e+00
    x1        c0        1.1184835861206892e+00
    x1        c1        5.7197287774690286e-01
    x1        c2        1.1290974918460173e+00
    x1        c3        1.6300046600174876e+00
    x1        c_key_upper  1.6474151762686589e+00
    x1        c_key_lower  1.6474151762686589e+00
    x2        OBJ       5.4756233555448319e-01
    x2        c0        1.8148548276300966e+00
    x2        c1        1.5593905025329158e+00
    x2        c2        1.6874451225277
    x2        c3        1.2485224390870930e+00
    x2        c_key_upper  1.3781305229767742e+00
    x2        c_key_lower  1.3781305229767742e+00
    x3        OBJ       1.1528464176785882e+00
    x3        c0        1.3512594378165790e+00
    x3        c1        1.3489595540149977e+00
    x3        c2        1.3956822921075211e+00
    x3        c3        6.3392803082850313e-01
    x3        c_key_upper  1.0684204135109314e+00
    x3        c_key_lower  1.0684204135109314e+00
    x4        OBJ       1.4005416443210497e+00
    x4        c0        1.9023789906837056e+00
    x4        c1        5.1856068313829362e-01
    x4        c2        8.2714291861401035e-01
    x4        c3        6.4592131130965125e-01
    x4        c_key_upper  1.8641970113895820e+00
    x4        c_key_lower  1.8641970113895820e+00
    _chain_var_0  _chain_constr_1  -1
    _chain_var_0  _chain_cycle  1
    _chain_var_1  _chain_constr_1  1
    _chain_var_1  _chain_constr_2  -1
    _chain_var_2  _chain_constr_2  1
    _chain_var_2  _chain_constr_3  -1
    _chain_var_3  _chain_constr_3  1
    _chain_var_3  _chain_constr_4  -1
    _chain_var_4  _chain_constr_4  1
    _chain_var_4  _chain_constr_5  -1
    _chain_var_5  _chain_constr_5  1
    _chain_var_5  _chain_cycle  -1
RHS
    RHS1      c0        2.8631035172269470e+01
    RHS1      c1        2.7678910545102035e+01
    RHS1      c2        9.6895960815878279e+00
    RHS1      c3        6.2175013989735426e+00
    RHS1      c_key_upper  3.5574042302094959e+01
    RHS1      c_key_lower  1.7787021151047480e+01
    RHS1      _chain_constr_1  10
    RHS1      _chain_constr_2  10
    RHS1      _chain_constr_3  10
    RHS1      _chain_constr_4  10
    RHS1      _chain_constr_5  10
    RHS1      _chain_cycle  10
BOUNDS
 UP BND1      x0        10
 UP BND1      x1        10
 UP BND1      x2        10
 UP BND1      x3        10
 UP BND1      x4        10
 UP BND1      _chain_var_0  100
 UP BND1      _chain_var_1  100
 UP BND1      _chain_var_2  100
 UP BND1      _chain_var_3  100
 UP BND1      _chain_var_4  100
 UP BND1      _chain_var_5  100
ENDATA
